(set-info :original "/var/folders/xz/sgqbj6yn0yv_1mpy6_jqympm0000gn/T/sea-AP1FmJ/max-3-n-u.pp.ms.o.bc")
(set-info :authors "SeaHorn v.0.1.0-rc3")
(declare-rel verifier.error (Bool Bool Bool ))
(declare-rel __VERIFIER_assert@_call (Int ))
(declare-rel __VERIFIER_assert@_ret (Int ))
(declare-rel __VERIFIER_assert (Bool Bool Bool Int ))
(declare-rel main@entry (Int ))
(declare-rel main@_bb (Int Int Int (Array Int Int) Int ))
(declare-rel main@_bb10 (Int (Array Int Int) Int Int ))
(declare-rel main@_bb21 (Int (Array Int Int) Int Int ))
(declare-rel main@_bb23 (Int (Array Int Int) Int Int Int ))
(declare-rel main@_bb25 (Int (Array Int Int) Int Int Int Int ))
(declare-rel main@verifier.error.split ())
(declare-rel main@_bb12 (Int (Array Int Int) Int Int Int ))
(declare-rel main@_bb14 (Int (Array Int Int) Int Int Int Int ))
(declare-rel main@_bb3 (Int Int Int Int (Array Int Int) Int ))
(declare-rel main@_bb5 (Int Int Int Int Int (Array Int Int) Int ))
(declare-var __VERIFIER_assert@%_call1_0 Bool )
(declare-var __VERIFIER_assert@arg.0_0 Int )
(declare-var __VERIFIER_assert@_call_0 Bool )
(declare-var __VERIFIER_assert@_ret_0 Bool )
(declare-var main@%_11_0 Int )
(declare-var @__VERIFIER_nondet_int_0 Int )
(declare-var main@%_12_0 Int )
(declare-var main@%_13_0 Int )
(declare-var main@%_14_0 Int )
(declare-var main@%_15_0 Int )
(declare-var main@%_16_0 Int )
(declare-var main@%_17_0 Int )
(declare-var main@%_9_0 Bool )
(declare-var main@%_6_0 Bool )
(declare-var main@%_42_0 Int )
(declare-var main@%_43_0 Int )
(declare-var main@%_44_0 Int )
(declare-var main@%_45_0 Int )
(declare-var main@%_35_0 Int )
(declare-var main@%_36_0 Int )
(declare-var main@%_37_0 Int )
(declare-var main@%_38_0 Int )
(declare-var main@%_39_0 Int )
(declare-var main@%_40_0 Bool )
(declare-var main@%.3.i_2 Int )
(declare-var main@%_32_0 Bool )
(declare-var main@%_29_0 Bool )
(declare-var main@%_77_0 Bool )
(declare-var main@%_63_0 Int )
(declare-var main@%_64_0 Int )
(declare-var main@%_65_0 Int )
(declare-var main@%_66_0 Int )
(declare-var main@%_67_0 Int )
(declare-var main@%_68_0 Int )
(declare-var main@%_69_0 Bool )
(declare-var main@%_71_0 Bool )
(declare-var main@%_61_0 Bool )
(declare-var main@%_58_0 Bool )
(declare-var main@%_55_0 Bool )
(declare-var main@%_26_0 Bool )
(declare-var main@%_3_0 Bool )
(declare-var main@%_1_0 Int )
(declare-var main@entry_0 Bool )
(declare-var main@%sm1_0 (Array Int Int) )
(declare-var main@%_0_0 Int )
(declare-var main@%.sub.i_0 Int )
(declare-var main@_bb_0 Bool )
(declare-var main@%shadow.mem.0.0_0 (Array Int Int) )
(declare-var main@%.0.i_0 Int )
(declare-var main@%shadow.mem.0.0_1 (Array Int Int) )
(declare-var main@%.0.i_1 Int )
(declare-var main@_bb9_0 Bool )
(declare-var main@%_24_0 Int )
(declare-var main@_bb10_0 Bool )
(declare-var main@%.07.i_0 Int )
(declare-var main@%.1.i_0 Int )
(declare-var main@%.07.i_1 Int )
(declare-var main@%.1.i_1 Int )
(declare-var main@_bb2_0 Bool )
(declare-var main@_bb3_0 Bool )
(declare-var main@%shadow.mem.0.1_0 (Array Int Int) )
(declare-var main@%.01.i_0 Int )
(declare-var main@%shadow.mem.0.1_1 (Array Int Int) )
(declare-var main@%.01.i_1 Int )
(declare-var main@_bb20_0 Bool )
(declare-var main@_bb21_0 Bool )
(declare-var main@%.2.i_0 Int )
(declare-var main@%.2.i_1 Int )
(declare-var main@_bb11_0 Bool )
(declare-var main@_bb12_0 Bool )
(declare-var main@%.18.i_0 Int )
(declare-var main@%.12.i_0 Int )
(declare-var main@%.18.i_1 Int )
(declare-var main@%.12.i_1 Int )
(declare-var main@_bb22_0 Bool )
(declare-var main@_bb23_0 Bool )
(declare-var main@%.23.i_0 Int )
(declare-var main@%.23.i_1 Int )
(declare-var main@_bb28_0 Bool )
(declare-var main@%_76_0 Int )
(declare-var main@%.2.i_2 Int )
(declare-var main@_bb24_0 Bool )
(declare-var main@_bb25_0 Bool )
(declare-var main@%.26.i_0 Int )
(declare-var main@%.26.i_1 Int )
(declare-var main@_bb27_0 Bool )
(declare-var main@%_74_0 Int )
(declare-var main@%.23.i_2 Int )
(declare-var main@_bb26_0 Bool )
(declare-var main@%_70_0 Int )
(declare-var main@postcall_0 Bool )
(declare-var main@%_72_0 Int )
(declare-var main@_bb25_1 Bool )
(declare-var main@%.26.i_2 Int )
(declare-var main@precall_0 Bool )
(declare-var main@__VERIFIER_assert_0 Bool )
(declare-var main@_bb29_0 Bool )
(declare-var main@verifier.error_0 Bool )
(declare-var main@verifier.error.split_0 Bool )
(declare-var main@_bb19_0 Bool )
(declare-var main@%_52_0 Int )
(declare-var main@%.1.i_2 Int )
(declare-var main@_bb13_0 Bool )
(declare-var main@_bb14_0 Bool )
(declare-var main@%.29.i_0 Int )
(declare-var main@%.15.i_0 Int )
(declare-var main@%.29.i_1 Int )
(declare-var main@%.15.i_1 Int )
(declare-var main@_bb18_0 Bool )
(declare-var main@%_50_0 Int )
(declare-var main@%.12.i_2 Int )
(declare-var main@_bb15_0 Bool )
(declare-var main@%_34_0 Int )
(declare-var main@_bb16_0 Bool )
(declare-var main@%_46_0 Int )
(declare-var main@_bb17_0 Bool )
(declare-var |tuple(main@_bb15_0, main@_bb17_0)| Bool )
(declare-var main@%.3.i_0 Int )
(declare-var main@%.3.i_1 Int )
(declare-var main@%_48_0 Int )
(declare-var main@_bb14_1 Bool )
(declare-var main@%.29.i_2 Int )
(declare-var main@%.15.i_2 Int )
(declare-var main@_bb8_0 Bool )
(declare-var main@%_22_0 Int )
(declare-var main@%.0.i_2 Int )
(declare-var main@_bb4_0 Bool )
(declare-var main@_bb5_0 Bool )
(declare-var main@%shadow.mem.0.2_0 (Array Int Int) )
(declare-var main@%.04.i_0 Int )
(declare-var main@%shadow.mem.0.2_1 (Array Int Int) )
(declare-var main@%.04.i_1 Int )
(declare-var main@_bb7_0 Bool )
(declare-var main@%_20_0 Int )
(declare-var main@%.01.i_2 Int )
(declare-var main@_bb6_0 Bool )
(declare-var main@%sm_0 (Array Int Int) )
(declare-var main@%_18_0 Int )
(declare-var main@_bb5_1 Bool )
(declare-var main@%shadow.mem.0.2_2 (Array Int Int) )
(declare-var main@%.04.i_2 Int )
(rule (verifier.error false false false))
(rule (verifier.error false true true))
(rule (verifier.error true false true))
(rule (verifier.error true true true))
(rule (__VERIFIER_assert true true true __VERIFIER_assert@arg.0_0))
(rule (__VERIFIER_assert false true true __VERIFIER_assert@arg.0_0))
(rule (__VERIFIER_assert false false false __VERIFIER_assert@arg.0_0))
(rule (__VERIFIER_assert@_call __VERIFIER_assert@arg.0_0))
(rule (=> (and (__VERIFIER_assert@_call __VERIFIER_assert@arg.0_0)
         true
         (= __VERIFIER_assert@%_call1_0 (= __VERIFIER_assert@arg.0_0 0))
         (not __VERIFIER_assert@%_call1_0)
         (=> __VERIFIER_assert@_ret_0
             (and __VERIFIER_assert@_ret_0 __VERIFIER_assert@_call_0))
         __VERIFIER_assert@_ret_0)
    (__VERIFIER_assert@_ret __VERIFIER_assert@arg.0_0)))
(rule (=> (__VERIFIER_assert@_ret __VERIFIER_assert@arg.0_0)
    (__VERIFIER_assert true false false __VERIFIER_assert@arg.0_0)))
(rule (main@entry @__VERIFIER_nondet_int_0))
(rule (let ((a!1 (and (main@entry @__VERIFIER_nondet_int_0)
                true
                (> main@%_0_0 0)
                (= main@%_1_0 main@%_0_0)
                (= main@%.sub.i_0 (+ main@%_0_0 (* 0 2210065408) (* 0 4)))
                (or (<= main@%_0_0 0) (> main@%.sub.i_0 0))
                (=> main@_bb_0 (and main@_bb_0 main@entry_0))
                (=> (and main@_bb_0 main@entry_0)
                    (= main@%shadow.mem.0.0_0 main@%sm1_0))
                (=> (and main@_bb_0 main@entry_0) (= main@%.0.i_0 0))
                (=> (and main@_bb_0 main@entry_0)
                    (= main@%shadow.mem.0.0_1 main@%shadow.mem.0.0_0))
                (=> (and main@_bb_0 main@entry_0) (= main@%.0.i_1 main@%.0.i_0))
                main@_bb_0)))
  (=> a!1
      (main@_bb @__VERIFIER_nondet_int_0
                main@%.0.i_1
                main@%_0_0
                main@%shadow.mem.0.0_1
                main@%.sub.i_0))))
(rule (let ((a!1 (and (main@_bb @__VERIFIER_nondet_int_0
                          main@%.0.i_0
                          main@%_0_0
                          main@%shadow.mem.0.0_0
                          main@%.sub.i_0)
                true
                (= main@%_3_0 (< main@%.0.i_0 1000))
                (=> main@_bb9_0 (and main@_bb9_0 main@_bb_0))
                (=> (and main@_bb9_0 main@_bb_0) (not main@%_3_0))
                (=> main@_bb9_0
                    (= main@%_24_0
                       (select main@%shadow.mem.0.0_0 main@%.sub.i_0)))
                (=> main@_bb10_0 (and main@_bb10_0 main@_bb9_0))
                (=> (and main@_bb10_0 main@_bb9_0)
                    (= main@%.07.i_0 main@%_24_0))
                (=> (and main@_bb10_0 main@_bb9_0) (= main@%.1.i_0 0))
                (=> (and main@_bb10_0 main@_bb9_0)
                    (= main@%.07.i_1 main@%.07.i_0))
                (=> (and main@_bb10_0 main@_bb9_0)
                    (= main@%.1.i_1 main@%.1.i_0))
                main@_bb10_0)))
  (=> a!1
      (main@_bb10 main@%_0_0 main@%shadow.mem.0.0_0 main@%.1.i_1 main@%.07.i_1))))
(rule (=> (and (main@_bb @__VERIFIER_nondet_int_0
                   main@%.0.i_0
                   main@%_0_0
                   main@%shadow.mem.0.0_0
                   main@%.sub.i_0)
         true
         (= main@%_3_0 (< main@%.0.i_0 1000))
         (=> main@_bb2_0 (and main@_bb2_0 main@_bb_0))
         (=> (and main@_bb2_0 main@_bb_0) main@%_3_0)
         (=> main@_bb3_0 (and main@_bb3_0 main@_bb2_0))
         (=> (and main@_bb3_0 main@_bb2_0)
             (= main@%shadow.mem.0.1_0 main@%shadow.mem.0.0_0))
         (=> (and main@_bb3_0 main@_bb2_0) (= main@%.01.i_0 0))
         (=> (and main@_bb3_0 main@_bb2_0)
             (= main@%shadow.mem.0.1_1 main@%shadow.mem.0.1_0))
         (=> (and main@_bb3_0 main@_bb2_0) (= main@%.01.i_1 main@%.01.i_0))
         main@_bb3_0)
    (main@_bb3 @__VERIFIER_nondet_int_0
               main@%.0.i_0
               main@%_0_0
               main@%.01.i_1
               main@%shadow.mem.0.1_1
               main@%.sub.i_0)))
(rule (=> (and (main@_bb10 main@%_0_0
                     main@%shadow.mem.0.0_0
                     main@%.1.i_0
                     main@%.07.i_0)
         true
         (= main@%_26_0 (< main@%.1.i_0 1000))
         (=> main@_bb20_0 (and main@_bb20_0 main@_bb10_0))
         (=> (and main@_bb20_0 main@_bb10_0) (not main@%_26_0))
         (=> main@_bb21_0 (and main@_bb21_0 main@_bb20_0))
         (=> (and main@_bb21_0 main@_bb20_0) (= main@%.2.i_0 0))
         (=> (and main@_bb21_0 main@_bb20_0) (= main@%.2.i_1 main@%.2.i_0))
         main@_bb21_0)
    (main@_bb21 main@%_0_0 main@%shadow.mem.0.0_0 main@%.07.i_0 main@%.2.i_1)))
(rule (=> (and (main@_bb10 main@%_0_0
                     main@%shadow.mem.0.0_0
                     main@%.1.i_0
                     main@%.07.i_0)
         true
         (= main@%_26_0 (< main@%.1.i_0 1000))
         (=> main@_bb11_0 (and main@_bb11_0 main@_bb10_0))
         (=> (and main@_bb11_0 main@_bb10_0) main@%_26_0)
         (=> main@_bb12_0 (and main@_bb12_0 main@_bb11_0))
         (=> (and main@_bb12_0 main@_bb11_0) (= main@%.18.i_0 main@%.07.i_0))
         (=> (and main@_bb12_0 main@_bb11_0) (= main@%.12.i_0 0))
         (=> (and main@_bb12_0 main@_bb11_0) (= main@%.18.i_1 main@%.18.i_0))
         (=> (and main@_bb12_0 main@_bb11_0) (= main@%.12.i_1 main@%.12.i_0))
         main@_bb12_0)
    (main@_bb12 main@%_0_0
                main@%shadow.mem.0.0_0
                main@%.12.i_1
                main@%.1.i_0
                main@%.18.i_1)))
(rule (=> (and (main@_bb21 main@%_0_0
                     main@%shadow.mem.0.0_0
                     main@%.07.i_0
                     main@%.2.i_0)
         true
         (= main@%_55_0 (< main@%.2.i_0 1000))
         main@%_55_0
         (=> main@_bb22_0 (and main@_bb22_0 main@_bb21_0))
         (=> main@_bb23_0 (and main@_bb23_0 main@_bb22_0))
         (=> (and main@_bb23_0 main@_bb22_0) (= main@%.23.i_0 0))
         (=> (and main@_bb23_0 main@_bb22_0) (= main@%.23.i_1 main@%.23.i_0))
         main@_bb23_0)
    (main@_bb23 main@%_0_0
                main@%shadow.mem.0.0_0
                main@%.07.i_0
                main@%.2.i_0
                main@%.23.i_1)))
(rule (let ((a!1 (and (main@_bb23 main@%_0_0
                            main@%shadow.mem.0.0_0
                            main@%.07.i_0
                            main@%.2.i_0
                            main@%.23.i_0)
                true
                (= main@%_58_0 (< main@%.23.i_0 1500))
                (=> main@_bb28_0 (and main@_bb28_0 main@_bb23_0))
                (=> (and main@_bb28_0 main@_bb23_0) (not main@%_58_0))
                (=> main@_bb28_0 (= main@%_76_0 (+ main@%.2.i_0 1)))
                (=> main@_bb21_0 (and main@_bb21_0 main@_bb28_0))
                (=> (and main@_bb21_0 main@_bb28_0)
                    (= main@%.2.i_1 main@%_76_0))
                (=> (and main@_bb21_0 main@_bb28_0)
                    (= main@%.2.i_2 main@%.2.i_1))
                main@_bb21_0)))
  (=> a!1
      (main@_bb21 main@%_0_0 main@%shadow.mem.0.0_0 main@%.07.i_0 main@%.2.i_2))))
(rule (=> (and (main@_bb23 main@%_0_0
                     main@%shadow.mem.0.0_0
                     main@%.07.i_0
                     main@%.2.i_0
                     main@%.23.i_0)
         true
         (= main@%_58_0 (< main@%.23.i_0 1500))
         (=> main@_bb24_0 (and main@_bb24_0 main@_bb23_0))
         (=> (and main@_bb24_0 main@_bb23_0) main@%_58_0)
         (=> main@_bb25_0 (and main@_bb25_0 main@_bb24_0))
         (=> (and main@_bb25_0 main@_bb24_0) (= main@%.26.i_0 0))
         (=> (and main@_bb25_0 main@_bb24_0) (= main@%.26.i_1 main@%.26.i_0))
         main@_bb25_0)
    (main@_bb25 main@%_0_0
                main@%shadow.mem.0.0_0
                main@%.07.i_0
                main@%.26.i_1
                main@%.2.i_0
                main@%.23.i_0)))
(rule (let ((a!1 (and (main@_bb25 main@%_0_0
                            main@%shadow.mem.0.0_0
                            main@%.07.i_0
                            main@%.26.i_0
                            main@%.2.i_0
                            main@%.23.i_0)
                true
                (= main@%_61_0 (< main@%.26.i_0 1800))
                (=> main@_bb27_0 (and main@_bb27_0 main@_bb25_0))
                (=> (and main@_bb27_0 main@_bb25_0) (not main@%_61_0))
                (=> main@_bb27_0 (= main@%_74_0 (+ main@%.23.i_0 1)))
                (=> main@_bb23_0 (and main@_bb23_0 main@_bb27_0))
                (=> (and main@_bb23_0 main@_bb27_0)
                    (= main@%.23.i_1 main@%_74_0))
                (=> (and main@_bb23_0 main@_bb27_0)
                    (= main@%.23.i_2 main@%.23.i_1))
                main@_bb23_0)))
  (=> a!1
      (main@_bb23 main@%_0_0
                  main@%shadow.mem.0.0_0
                  main@%.07.i_0
                  main@%.2.i_0
                  main@%.23.i_2))))
(rule (let ((a!1 (=> main@_bb26_0
               (= main@%_64_0 (+ main@%_0_0 (* 0 2210065408) (* main@%_63_0 4)))))
      (a!2 (=> main@_bb26_0 (= main@%_66_0 (+ main@%_64_0 (* main@%_65_0 4)))))
      (a!3 (=> main@_bb26_0 (= main@%_67_0 (+ main@%_66_0 (* main@%.26.i_0 4))))))
(let ((a!4 (and (main@_bb25 main@%_0_0
                            main@%shadow.mem.0.0_0
                            main@%.07.i_0
                            main@%.26.i_0
                            main@%.2.i_0
                            main@%.23.i_0)
                true
                (= main@%_61_0 (< main@%.26.i_0 1800))
                (=> main@_bb26_0 (and main@_bb26_0 main@_bb25_0))
                (=> (and main@_bb26_0 main@_bb25_0) main@%_61_0)
                (=> main@_bb26_0 (= main@%_63_0 (* main@%.2.i_0 2700000)))
                a!1
                (=> main@_bb26_0 (or (<= main@%_0_0 0) (> main@%_64_0 0)))
                (=> main@_bb26_0 (= main@%_65_0 (* main@%.23.i_0 1800)))
                a!2
                (=> main@_bb26_0 (or (<= main@%_64_0 0) (> main@%_66_0 0)))
                a!3
                (=> main@_bb26_0 (or (<= main@%_66_0 0) (> main@%_67_0 0)))
                (=> main@_bb26_0 (> main@%_66_0 0))
                (=> main@_bb26_0
                    (= main@%_68_0 (select main@%shadow.mem.0.0_0 main@%_67_0)))
                (=> main@_bb26_0 (= main@%_69_0 (<= main@%_68_0 main@%.07.i_0)))
                (=> main@_bb26_0 (= main@%_70_0 (ite main@%_69_0 1 0)))
                (=> main@postcall_0 (and main@postcall_0 main@_bb26_0))
                (=> (and main@postcall_0 main@_bb26_0) main@%_71_0)
                (__VERIFIER_assert main@postcall_0 false false main@%_70_0)
                (=> main@postcall_0 (= main@%_72_0 (+ main@%.26.i_0 1)))
                (=> main@_bb25_1 (and main@_bb25_1 main@postcall_0))
                (=> (and main@_bb25_1 main@postcall_0)
                    (= main@%.26.i_1 main@%_72_0))
                (=> (and main@_bb25_1 main@postcall_0)
                    (= main@%.26.i_2 main@%.26.i_1))
                main@_bb25_1)))
  (=> a!4
      (main@_bb25 main@%_0_0
                  main@%shadow.mem.0.0_0
                  main@%.07.i_0
                  main@%.26.i_2
                  main@%.2.i_0
                  main@%.23.i_0)))))
(rule (let ((a!1 (=> main@_bb26_0
               (= main@%_64_0 (+ main@%_0_0 (* 0 2210065408) (* main@%_63_0 4)))))
      (a!2 (=> main@_bb26_0 (= main@%_66_0 (+ main@%_64_0 (* main@%_65_0 4)))))
      (a!3 (=> main@_bb26_0 (= main@%_67_0 (+ main@%_66_0 (* main@%.26.i_0 4))))))
(let ((a!4 (and (main@_bb25 main@%_0_0
                            main@%shadow.mem.0.0_0
                            main@%.07.i_0
                            main@%.26.i_0
                            main@%.2.i_0
                            main@%.23.i_0)
                true
                (= main@%_61_0 (< main@%.26.i_0 1800))
                (=> main@_bb26_0 (and main@_bb26_0 main@_bb25_0))
                (=> (and main@_bb26_0 main@_bb25_0) main@%_61_0)
                (=> main@_bb26_0 (= main@%_63_0 (* main@%.2.i_0 2700000)))
                a!1
                (=> main@_bb26_0 (or (<= main@%_0_0 0) (> main@%_64_0 0)))
                (=> main@_bb26_0 (= main@%_65_0 (* main@%.23.i_0 1800)))
                a!2
                (=> main@_bb26_0 (or (<= main@%_64_0 0) (> main@%_66_0 0)))
                a!3
                (=> main@_bb26_0 (or (<= main@%_66_0 0) (> main@%_67_0 0)))
                (=> main@_bb26_0 (> main@%_66_0 0))
                (=> main@_bb26_0
                    (= main@%_68_0 (select main@%shadow.mem.0.0_0 main@%_67_0)))
                (=> main@_bb26_0 (= main@%_69_0 (<= main@%_68_0 main@%.07.i_0)))
                (=> main@_bb26_0 (= main@%_70_0 (ite main@%_69_0 1 0)))
                (=> main@precall_0 (and main@precall_0 main@_bb26_0))
                (=> (and main@precall_0 main@_bb26_0) (not main@%_71_0))
                (=> main@__VERIFIER_assert_0
                    (and main@__VERIFIER_assert_0 main@precall_0))
                (=> main@__VERIFIER_assert_0 (= main@%_77_0 (= main@%_70_0 0)))
                (=> main@__VERIFIER_assert_0 main@%_77_0)
                (=> main@_bb29_0 (and main@_bb29_0 main@__VERIFIER_assert_0))
                (=> main@verifier.error_0
                    (and main@verifier.error_0 main@_bb29_0))
                (=> main@verifier.error.split_0
                    (and main@verifier.error.split_0 main@verifier.error_0))
                main@verifier.error.split_0)))
  (=> a!4 main@verifier.error.split))))
(rule (let ((a!1 (and (main@_bb12 main@%_0_0
                            main@%shadow.mem.0.0_0
                            main@%.12.i_0
                            main@%.1.i_0
                            main@%.18.i_0)
                true
                (= main@%_29_0 (< main@%.12.i_0 1500))
                (=> main@_bb19_0 (and main@_bb19_0 main@_bb12_0))
                (=> (and main@_bb19_0 main@_bb12_0) (not main@%_29_0))
                (=> main@_bb19_0 (= main@%_52_0 (+ main@%.1.i_0 1)))
                (=> main@_bb10_0 (and main@_bb10_0 main@_bb19_0))
                (=> (and main@_bb10_0 main@_bb19_0)
                    (= main@%.07.i_0 main@%.18.i_0))
                (=> (and main@_bb10_0 main@_bb19_0)
                    (= main@%.1.i_1 main@%_52_0))
                (=> (and main@_bb10_0 main@_bb19_0)
                    (= main@%.07.i_1 main@%.07.i_0))
                (=> (and main@_bb10_0 main@_bb19_0)
                    (= main@%.1.i_2 main@%.1.i_1))
                main@_bb10_0)))
  (=> a!1
      (main@_bb10 main@%_0_0 main@%shadow.mem.0.0_0 main@%.1.i_2 main@%.07.i_1))))
(rule (=> (and (main@_bb12 main@%_0_0
                     main@%shadow.mem.0.0_0
                     main@%.12.i_0
                     main@%.1.i_0
                     main@%.18.i_0)
         true
         (= main@%_29_0 (< main@%.12.i_0 1500))
         (=> main@_bb13_0 (and main@_bb13_0 main@_bb12_0))
         (=> (and main@_bb13_0 main@_bb12_0) main@%_29_0)
         (=> main@_bb14_0 (and main@_bb14_0 main@_bb13_0))
         (=> (and main@_bb14_0 main@_bb13_0) (= main@%.29.i_0 main@%.18.i_0))
         (=> (and main@_bb14_0 main@_bb13_0) (= main@%.15.i_0 0))
         (=> (and main@_bb14_0 main@_bb13_0) (= main@%.29.i_1 main@%.29.i_0))
         (=> (and main@_bb14_0 main@_bb13_0) (= main@%.15.i_1 main@%.15.i_0))
         main@_bb14_0)
    (main@_bb14 main@%_0_0
                main@%shadow.mem.0.0_0
                main@%.15.i_1
                main@%.29.i_1
                main@%.12.i_0
                main@%.1.i_0)))
(rule (let ((a!1 (and (main@_bb14 main@%_0_0
                            main@%shadow.mem.0.0_0
                            main@%.15.i_0
                            main@%.29.i_0
                            main@%.12.i_0
                            main@%.1.i_0)
                true
                (= main@%_32_0 (< main@%.15.i_0 1800))
                (=> main@_bb18_0 (and main@_bb18_0 main@_bb14_0))
                (=> (and main@_bb18_0 main@_bb14_0) (not main@%_32_0))
                (=> main@_bb18_0 (= main@%_50_0 (+ main@%.12.i_0 1)))
                (=> main@_bb12_0 (and main@_bb12_0 main@_bb18_0))
                (=> (and main@_bb12_0 main@_bb18_0)
                    (= main@%.18.i_0 main@%.29.i_0))
                (=> (and main@_bb12_0 main@_bb18_0)
                    (= main@%.12.i_1 main@%_50_0))
                (=> (and main@_bb12_0 main@_bb18_0)
                    (= main@%.18.i_1 main@%.18.i_0))
                (=> (and main@_bb12_0 main@_bb18_0)
                    (= main@%.12.i_2 main@%.12.i_1))
                main@_bb12_0)))
  (=> a!1
      (main@_bb12 main@%_0_0
                  main@%shadow.mem.0.0_0
                  main@%.12.i_2
                  main@%.1.i_0
                  main@%.18.i_1))))
(rule (let ((a!1 (=> main@_bb15_0
               (= main@%_35_0 (+ main@%_0_0 (* 0 2210065408) (* main@%_34_0 4)))))
      (a!2 (=> main@_bb15_0 (= main@%_37_0 (+ main@%_35_0 (* main@%_36_0 4)))))
      (a!3 (=> main@_bb15_0 (= main@%_38_0 (+ main@%_37_0 (* main@%.15.i_0 4)))))
      (a!4 (=> main@_bb16_0
               (= main@%_42_0 (+ main@%_0_0 (* 0 2210065408) (* main@%_34_0 4)))))
      (a!5 (=> main@_bb16_0 (= main@%_44_0 (+ main@%_42_0 (* main@%_43_0 4)))))
      (a!6 (=> main@_bb16_0 (= main@%_45_0 (+ main@%_44_0 (* main@%.15.i_0 4))))))
(let ((a!7 (and (main@_bb14 main@%_0_0
                            main@%shadow.mem.0.0_0
                            main@%.15.i_0
                            main@%.29.i_0
                            main@%.12.i_0
                            main@%.1.i_0)
                true
                (= main@%_32_0 (< main@%.15.i_0 1800))
                (=> main@_bb15_0 (and main@_bb15_0 main@_bb14_0))
                (=> (and main@_bb15_0 main@_bb14_0) main@%_32_0)
                (=> main@_bb15_0 (= main@%_34_0 (* main@%.1.i_0 2700000)))
                a!1
                (=> main@_bb15_0 (or (<= main@%_0_0 0) (> main@%_35_0 0)))
                (=> main@_bb15_0 (= main@%_36_0 (* main@%.12.i_0 1800)))
                a!2
                (=> main@_bb15_0 (or (<= main@%_35_0 0) (> main@%_37_0 0)))
                a!3
                (=> main@_bb15_0 (or (<= main@%_37_0 0) (> main@%_38_0 0)))
                (=> main@_bb15_0 (> main@%_37_0 0))
                (=> main@_bb15_0
                    (= main@%_39_0 (select main@%shadow.mem.0.0_0 main@%_38_0)))
                (=> main@_bb15_0 (= main@%_40_0 (> main@%_39_0 main@%.29.i_0)))
                (=> main@_bb16_0 (and main@_bb16_0 main@_bb15_0))
                (=> (and main@_bb16_0 main@_bb15_0) main@%_40_0)
                a!4
                (=> main@_bb16_0 (or (<= main@%_0_0 0) (> main@%_42_0 0)))
                (=> main@_bb16_0 (= main@%_43_0 (* main@%.12.i_0 1800)))
                a!5
                (=> main@_bb16_0 (or (<= main@%_42_0 0) (> main@%_44_0 0)))
                a!6
                (=> main@_bb16_0 (or (<= main@%_44_0 0) (> main@%_45_0 0)))
                (=> main@_bb16_0 (> main@%_44_0 0))
                (=> main@_bb16_0
                    (= main@%_46_0 (select main@%shadow.mem.0.0_0 main@%_45_0)))
                (=> |tuple(main@_bb15_0, main@_bb17_0)| main@_bb15_0)
                (=> main@_bb17_0
                    (or (and main@_bb17_0 main@_bb16_0)
                        |tuple(main@_bb15_0, main@_bb17_0)|))
                (=> |tuple(main@_bb15_0, main@_bb17_0)| (not main@%_40_0))
                (=> (and main@_bb17_0 main@_bb16_0)
                    (= main@%.3.i_0 main@%_46_0))
                (=> |tuple(main@_bb15_0, main@_bb17_0)|
                    (= main@%.3.i_1 main@%.29.i_0))
                (=> (and main@_bb17_0 main@_bb16_0)
                    (= main@%.3.i_2 main@%.3.i_0))
                (=> |tuple(main@_bb15_0, main@_bb17_0)|
                    (= main@%.3.i_2 main@%.3.i_1))
                (=> main@_bb17_0 (= main@%_48_0 (+ main@%.15.i_0 1)))
                (=> main@_bb14_1 (and main@_bb14_1 main@_bb17_0))
                (=> (and main@_bb14_1 main@_bb17_0)
                    (= main@%.29.i_1 main@%.3.i_2))
                (=> (and main@_bb14_1 main@_bb17_0)
                    (= main@%.15.i_1 main@%_48_0))
                (=> (and main@_bb14_1 main@_bb17_0)
                    (= main@%.29.i_2 main@%.29.i_1))
                (=> (and main@_bb14_1 main@_bb17_0)
                    (= main@%.15.i_2 main@%.15.i_1))
                main@_bb14_1)))
  (=> a!7
      (main@_bb14 main@%_0_0
                  main@%shadow.mem.0.0_0
                  main@%.15.i_2
                  main@%.29.i_2
                  main@%.12.i_0
                  main@%.1.i_0)))))
(rule (let ((a!1 (and (main@_bb3 @__VERIFIER_nondet_int_0
                           main@%.0.i_0
                           main@%_0_0
                           main@%.01.i_0
                           main@%shadow.mem.0.1_0
                           main@%.sub.i_0)
                true
                (= main@%_6_0 (< main@%.01.i_0 1500))
                (=> main@_bb8_0 (and main@_bb8_0 main@_bb3_0))
                (=> (and main@_bb8_0 main@_bb3_0) (not main@%_6_0))
                (=> main@_bb8_0 (= main@%_22_0 (+ main@%.0.i_0 1)))
                (=> main@_bb_0 (and main@_bb_0 main@_bb8_0))
                (=> (and main@_bb_0 main@_bb8_0)
                    (= main@%shadow.mem.0.0_0 main@%shadow.mem.0.1_0))
                (=> (and main@_bb_0 main@_bb8_0) (= main@%.0.i_1 main@%_22_0))
                (=> (and main@_bb_0 main@_bb8_0)
                    (= main@%shadow.mem.0.0_1 main@%shadow.mem.0.0_0))
                (=> (and main@_bb_0 main@_bb8_0) (= main@%.0.i_2 main@%.0.i_1))
                main@_bb_0)))
  (=> a!1
      (main@_bb @__VERIFIER_nondet_int_0
                main@%.0.i_2
                main@%_0_0
                main@%shadow.mem.0.0_1
                main@%.sub.i_0))))
(rule (=> (and (main@_bb3 @__VERIFIER_nondet_int_0
                    main@%.0.i_0
                    main@%_0_0
                    main@%.01.i_0
                    main@%shadow.mem.0.1_0
                    main@%.sub.i_0)
         true
         (= main@%_6_0 (< main@%.01.i_0 1500))
         (=> main@_bb4_0 (and main@_bb4_0 main@_bb3_0))
         (=> (and main@_bb4_0 main@_bb3_0) main@%_6_0)
         (=> main@_bb5_0 (and main@_bb5_0 main@_bb4_0))
         (=> (and main@_bb5_0 main@_bb4_0)
             (= main@%shadow.mem.0.2_0 main@%shadow.mem.0.1_0))
         (=> (and main@_bb5_0 main@_bb4_0) (= main@%.04.i_0 0))
         (=> (and main@_bb5_0 main@_bb4_0)
             (= main@%shadow.mem.0.2_1 main@%shadow.mem.0.2_0))
         (=> (and main@_bb5_0 main@_bb4_0) (= main@%.04.i_1 main@%.04.i_0))
         main@_bb5_0)
    (main@_bb5 @__VERIFIER_nondet_int_0
               main@%.0.i_0
               main@%_0_0
               main@%.01.i_0
               main@%.04.i_1
               main@%shadow.mem.0.2_1
               main@%.sub.i_0)))
(rule (let ((a!1 (and (main@_bb5 @__VERIFIER_nondet_int_0
                           main@%.0.i_0
                           main@%_0_0
                           main@%.01.i_0
                           main@%.04.i_0
                           main@%shadow.mem.0.2_0
                           main@%.sub.i_0)
                true
                (= main@%_9_0 (< main@%.04.i_0 1800))
                (=> main@_bb7_0 (and main@_bb7_0 main@_bb5_0))
                (=> (and main@_bb7_0 main@_bb5_0) (not main@%_9_0))
                (=> main@_bb7_0 (= main@%_20_0 (+ main@%.01.i_0 1)))
                (=> main@_bb3_0 (and main@_bb3_0 main@_bb7_0))
                (=> (and main@_bb3_0 main@_bb7_0)
                    (= main@%shadow.mem.0.1_0 main@%shadow.mem.0.2_0))
                (=> (and main@_bb3_0 main@_bb7_0) (= main@%.01.i_1 main@%_20_0))
                (=> (and main@_bb3_0 main@_bb7_0)
                    (= main@%shadow.mem.0.1_1 main@%shadow.mem.0.1_0))
                (=> (and main@_bb3_0 main@_bb7_0)
                    (= main@%.01.i_2 main@%.01.i_1))
                main@_bb3_0)))
  (=> a!1
      (main@_bb3 @__VERIFIER_nondet_int_0
                 main@%.0.i_0
                 main@%_0_0
                 main@%.01.i_2
                 main@%shadow.mem.0.1_1
                 main@%.sub.i_0))))
(rule (let ((a!1 (=> main@_bb6_0
               (= main@%_14_0 (+ main@%_0_0 (* 0 2210065408) (* main@%_13_0 4)))))
      (a!2 (=> main@_bb6_0 (= main@%_16_0 (+ main@%_14_0 (* main@%_15_0 4)))))
      (a!3 (=> main@_bb6_0 (= main@%_17_0 (+ main@%_16_0 (* main@%.04.i_0 4))))))
(let ((a!4 (and (main@_bb5 @__VERIFIER_nondet_int_0
                           main@%.0.i_0
                           main@%_0_0
                           main@%.01.i_0
                           main@%.04.i_0
                           main@%shadow.mem.0.2_0
                           main@%.sub.i_0)
                true
                (= main@%_9_0 (< main@%.04.i_0 1800))
                (=> main@_bb6_0 (and main@_bb6_0 main@_bb5_0))
                (=> (and main@_bb6_0 main@_bb5_0) main@%_9_0)
                (=> main@_bb6_0 (= main@%_11_0 @__VERIFIER_nondet_int_0))
                (=> main@_bb6_0 (= main@%_13_0 (* main@%.0.i_0 2700000)))
                a!1
                (=> main@_bb6_0 (or (<= main@%_0_0 0) (> main@%_14_0 0)))
                (=> main@_bb6_0 (= main@%_15_0 (* main@%.01.i_0 1800)))
                a!2
                (=> main@_bb6_0 (or (<= main@%_14_0 0) (> main@%_16_0 0)))
                a!3
                (=> main@_bb6_0 (or (<= main@%_16_0 0) (> main@%_17_0 0)))
                (=> main@_bb6_0 (> main@%_16_0 0))
                (=> main@_bb6_0
                    (= main@%sm_0
                       (store main@%shadow.mem.0.2_0 main@%_17_0 main@%_12_0)))
                (=> main@_bb6_0 (= main@%_18_0 (+ main@%.04.i_0 1)))
                (=> main@_bb5_1 (and main@_bb5_1 main@_bb6_0))
                (=> (and main@_bb5_1 main@_bb6_0)
                    (= main@%shadow.mem.0.2_1 main@%sm_0))
                (=> (and main@_bb5_1 main@_bb6_0) (= main@%.04.i_1 main@%_18_0))
                (=> (and main@_bb5_1 main@_bb6_0)
                    (= main@%shadow.mem.0.2_2 main@%shadow.mem.0.2_1))
                (=> (and main@_bb5_1 main@_bb6_0)
                    (= main@%.04.i_2 main@%.04.i_1))
                main@_bb5_1)))
  (=> a!4
      (main@_bb5 @__VERIFIER_nondet_int_0
                 main@%.0.i_0
                 main@%_0_0
                 main@%.01.i_0
                 main@%.04.i_2
                 main@%shadow.mem.0.2_2
                 main@%.sub.i_0)))))
(query main@verifier.error.split)

